
Gurobi 11.0.0 (linux64) logging started Thu Dec 19 22:11:31 2024

Set parameter LogFile to value "gurobi.log"
Set parameter InfUnbdInfo to value 1
Gurobi Optimizer version 11.0.0 build v11.0.0rc2 (linux64 - "Ubuntu 22.04.4 LTS")

CPU model: AMD EPYC 7V13 64-Core Processor, instruction set [SSE2|AVX|AVX2]
Thread count: 128 physical cores, 128 logical processors, using up to 32 threads

Optimize a model with 59 rows, 214 columns and 174 nonzeros
Model fingerprint: 0xf179bab1
Model has 116 quadratic constraints
Model has 19 general constraints
Variable types: 41 continuous, 173 integer (0 binary)
Coefficient statistics:
  Matrix range     [1e+00, 2e+01]
  QMatrix range    [1e+00, 4e+02]
  QLMatrix range   [1e+00, 1e+00]
  Objective range  [1e+00, 1e+00]
  Bounds range     [1e+00, 2e+06]
  RHS range        [1e+00, 2e+06]
  QRHS range       [3e+02, 9e+03]
Using branch priorities (all 0).
Presolve added 49 rows and 78 columns
Presolve time: 0.01s
Presolved: 555 rows, 503 columns, 2446 nonzeros
Presolved model has 120 SOS constraint(s)
Presolved model has 43 bilinear constraint(s)
Warning: Model contains variables with very large bounds participating
         in product terms.
         Presolve was not able to compute smaller bounds for these variables.
         Consider bounding these variables or reformulating the model.


Solving non-convex MIQCP

Variable types: 123 continuous, 380 integer (103 binary)

Root relaxation: objective 1.199281e+02, 205 iterations, 0.00 seconds (0.00 work units)

    Nodes    |    Current Node    |     Objective Bounds      |     Work
 Expl Unexpl |  Obj  Depth IntInf | Incumbent    BestBd   Gap | It/Node Time

     0     0  119.92807    0   84          -  119.92807      -     -    0s
     0     0  119.92807    0   73          -  119.92807      -     -    0s
     0     0  210.66113    0  178          -  210.66113      -     -    0s
     0     0  210.66114    0  169          -  210.66114      -     -    0s
     0     0  212.48686    0  170          -  212.48686      -     -    0s
     0     0  216.30991    0  189          -  216.30991      -     -    0s
     0     0  216.30991    0   64          -  216.30991      -     -    1s
H    0     0                    402964.56250  216.30991   100%     -    1s
     0     0  216.30991    0  104 402964.563  216.30991   100%     -    1s
     0     0  220.55967    0  126 402964.563  220.55967   100%     -    1s
     0     0  267.89316    0   93 402964.563  267.89316   100%     -    1s
H    0     0                    402785.56250  269.05753   100%     -    1s
H    0     0                    243886.06250  272.63085   100%     -    1s
     0     0  272.63085    0   88 243886.063  272.63085   100%     -    1s
H    0     0                    243297.06250  272.63085   100%     -    1s
     0     0  332.47336    0   88 243297.063  332.47336   100%     -    1s
     0     0  332.61196    0   88 243297.063  332.61196   100%     -    1s
     0     0  333.31284    0  113 243297.063  333.31284   100%     -    1s
H    0     0                    243295.56250  333.37512   100%     -    2s
     0     0  333.37512    0  106 243295.563  333.37512   100%     -    2s
H    0     0                    172210.12500  333.37512   100%     -    2s
     0     0  376.85652    0  108 172210.125  376.85652   100%     -    2s
     0     0  425.84141    0  114 172210.125  425.84141   100%     -    2s
     0     0  716.73222    0  148 172210.125  716.73222   100%     -    2s
     0     0  716.73222    0  148 172210.125  716.73222   100%     -    2s
H    0     0                    171617.11729  716.73222   100%     -    2s
     0     0 1959.62464    0  141 171617.117 1959.62464  98.9%     -    2s
     0     0 2178.94170    0   68 171617.117 2178.94170  98.7%     -    2s
     0     0 2264.69960    0   72 171617.117 2264.69960  98.7%     -    2s
     0     0 2337.43388    0   56 171617.117 2337.43388  98.6%     -    2s
     0     0 2432.23744    0   74 171617.117 2432.23744  98.6%     -    2s
     0     0 2454.14276    0   40 171617.117 2454.14276  98.6%     -    3s
     0     0 2489.61373    0   31 171617.117 2489.61373  98.5%     -    3s
     0     0 2509.53192    0   24 171617.117 2509.53192  98.5%     -    3s
     0     0 2537.32415    0   27 171617.117 2537.32415  98.5%     -    3s
     0     0 2561.42795    0   17 171617.117 2561.42795  98.5%     -    3s
     0     0 2584.46423    0   16 171617.117 2584.46423  98.5%     -    3s
     0     0 2599.19217    0   15 171617.117 2599.19217  98.5%     -    3s
H    0     0                    13320.167724 2599.19217  80.5%     -    4s
     0     2 2599.19217    0   15 13320.1677 2599.19217  80.5%     -    4s
H  100    38                    10800.244829 2599.19217  75.9%  21.3    5s
*  458    32              20    10799.744829 2599.19217  75.9%  22.2    5s

Cutting planes:
  Learned: 4
  Gomory: 5
  Implied bound: 70
  MIR: 58
  StrongCG: 7
  Flow cover: 18
  Flow path: 1
  RLT: 68
  Relax-and-lift: 33

Explored 550 nodes (13518 simplex iterations) in 5.86 seconds (0.22 work units)
Thread count was 32 (of 128 available processors)

Solution count 10: 10799.7 10800.2 13320.2 ... 402965

Optimal solution found (tolerance 1.00e-04)
Warning: max constraint violation (5.1199e-04) exceeds tolerance
Warning: max general constraint violation (5.1199e-04) exceeds tolerance
Best objective 1.079974482944e+04, best bound 1.079974482944e+04, gap 0.0000%
